;; manifest: state-fields = cur_line:String eff_nop:Effect eff_out:Effect inj_cur:Int inj_no:Int inj_reg:String inj_txt:String ins_cur:Int ins_no:Int ins_reg:String ins_txt:String line_no:Int phase:Int scan_depth:Int scan_found:Int scan_pos:Int splice_add:String
;; manifest: effects-name = effects
;; manifest: effect-enum-name = Effect
;; manifest: result-enum-name = Result
;; manifest: max-effects = 16

(declare-datatypes ((Result 0)) (((NoResult) (IntResult (IntResult__f0 Int)) (StringResult (StringResult__f0 String)) (RealResult (RealResult__f0 Real)) (EofResult) (ErrorResult (ErrorResult__f0 String)))))
(declare-datatypes ((LibArg 0)) (((ArgInt (ArgInt__f0 Int)) (ArgStr (ArgStr__f0 String)) (ArgReal (ArgReal__f0 Real)) (ArgRef (ArgRef__f0 Int)))))
(declare-datatypes ((__SeqOf_LibArg 0)) (((__Empty_LibArg) (__Cell_LibArg (head LibArg) (tail __SeqOf_LibArg)))))
(declare-datatypes ((Effect 0)) (((ReadLine) (ReadFile (ReadFile__f0 String)) (WriteFile (WriteFile__f0 String) (WriteFile__f1 String)) (LibCall (LibCall__f0 String) (LibCall__f1 String) (LibCall__f2 __SeqOf_LibArg)) (Exit (Exit__f0 Int)))))
(declare-fun effects__len () Int)
(declare-fun last_results__len () Int)
(declare-fun _phase () Int)
(declare-fun is_first_tick () Bool)
(declare-fun _t_ph () Int)
(declare-fun last_results () (Array Int Result))
(declare-fun _t_rline () String)
(declare-fun _t_reof () Bool)
(declare-fun _line_no () Int)
(declare-fun _t_nn () Int)
(declare-fun _scan_pos () Int)
(declare-fun _cur_line () String)
(declare-fun _scan_found () Int)
(declare-fun _t_s1op () Int)
(declare-fun _t_s1cp () Int)
(declare-fun _scan_depth () Int)
(declare-fun _t_s1f () Int)
(declare-fun _t_s1d () Int)
(declare-fun _t_s1p () Int)
(declare-fun _t_scan_done () Bool)
(declare-fun _t_has_inj () Bool)
(declare-fun _t_plain_emit () Bool)
(declare-fun _t_emit_now () Bool)
(declare-fun _ins_no () Int)
(declare-fun _t_ins_take () Bool)
(declare-fun _inj_no () Int)
(declare-fun _t_inj_take () Bool)
(declare-fun _ins_reg () String)
(declare-fun _t_ins_src () String)
(declare-fun _ins_cur () Int)
(declare-fun _t_ins_c () Int)
(declare-fun _t_ins_step () Bool)
(declare-fun _inj_reg () String)
(declare-fun _t_inj_src () String)
(declare-fun _inj_cur () Int)
(declare-fun _t_inj_c () Int)
(declare-fun _t_inj_step () Bool)
(declare-fun _t_src_line () String)
(declare-fun _t_ind_end () Int)
(declare-fun _ins_txt () String)
(declare-fun _splice_add () String)
(declare-fun _t_out_full () String)
(declare-fun eff_out () Effect)
(declare-fun eff_nop () Effect)
(declare-fun _t_exit_now () Bool)
(declare-fun _t_reg_read () Bool)
(declare-fun phase () Int)
(declare-fun line_no () Int)
(declare-fun ins_reg () String)
(declare-fun inj_reg () String)
(declare-fun _t_ins_no_parsed () Int)
(declare-fun ins_no () Int)
(declare-fun ins_txt () String)
(declare-fun ins_cur () Int)
(declare-fun _t_inj_no_parsed () Int)
(declare-fun inj_no () Int)
(declare-fun inj_cur () Int)
(declare-fun _inj_txt () String)
(declare-fun inj_txt () String)
(declare-fun cur_line () String)
(declare-fun scan_pos () Int)
(declare-fun scan_depth () Int)
(declare-fun scan_found () Int)
(declare-fun splice_add () String)
(declare-fun effects () (Array Int Effect))
(assert (>= effects__len 0))
(assert (>= last_results__len 0))
(assert (= _t_ph (ite is_first_tick 0 _phase)))
(assert (= _t_rline
   (ite ((_ is StringResult) (select last_results 1))
        (StringResult__f0 (select last_results 1))
        "")))
(assert (= _t_reof (ite ((_ is EofResult) (select last_results 1)) true false)))
(assert (let ((a!1 (ite is_first_tick
                0
                (ite (and (= _t_ph 3) (not _t_reof)) (+ _line_no 1) _line_no))))
  (= _t_nn a!1)))
(assert (= _t_s1op
   (ite (> _scan_found (- 0 2)) (- 0 1) (str.indexof _cur_line "(" _scan_pos))))
(assert (= _t_s1cp
   (ite (> _scan_found (- 0 2)) (- 0 1) (str.indexof _cur_line ")" _scan_pos))))
(assert (let ((a!1 (ite (< _t_s1cp 0)
                (- 0 1)
                (ite (and (>= _t_s1op 0) (< _t_s1op _t_s1cp))
                     (- 0 2)
                     (ite (= _scan_depth 1) _t_s1cp (- 0 2))))))
  (= _t_s1f (ite (> _scan_found (- 0 2)) _scan_found a!1))))
(assert (let ((a!1 (ite (< _t_s1cp 0)
                _scan_depth
                (ite (and (>= _t_s1op 0) (< _t_s1op _t_s1cp))
                     (+ _scan_depth 1)
                     (- _scan_depth 1)))))
  (= _t_s1d (ite (> _scan_found (- 0 2)) _scan_depth a!1))))
(assert (let ((a!1 (ite (< _t_s1cp 0)
                _scan_pos
                (ite (and (>= _t_s1op 0) (< _t_s1op _t_s1cp))
                     (+ _t_s1op 1)
                     (+ _t_s1cp 1)))))
  (= _t_s1p (ite (> _scan_found (- 0 2)) _scan_pos a!1))))
(assert (= _t_scan_done (and (= _t_ph 4) (> _t_s1f (- 0 2)))))
(assert (= _t_plain_emit (and (= _t_ph 3) (not _t_reof) (not _t_has_inj))))
(assert (= _t_emit_now (or _t_plain_emit _t_scan_done)))
(assert (= _t_ins_take (and _t_emit_now (= _t_nn _ins_no))))
(assert (= _t_inj_take (and (= _t_ph 3) (not _t_reof) (= _t_nn _inj_no))))
(assert (= _t_has_inj
   (ite (and (= _t_ph 3) (not _t_reof) (= _t_nn _inj_no))
        (>= (str.indexof _t_rline "(" 0) 0)
        false)))
(assert (= _t_ins_src (ite (= _t_ph 1) _t_rline _ins_reg)))
(assert (= _t_ins_c (ite (= _t_ph 1) 0 _ins_cur)))
(assert (= _t_ins_step (or (= _t_ph 1) _t_ins_take)))
(assert (= _t_inj_src (ite (= _t_ph 2) _t_rline _inj_reg)))
(assert (= _t_inj_c (ite (= _t_ph 2) 0 _inj_cur)))
(assert (= _t_inj_step (or (= _t_ph 2) _t_inj_take)))
(assert (= _t_src_line (ite (= _t_ph 3) _t_rline _cur_line)))
(assert (let ((a!1 (or (= (str.at (ite _t_ins_take _t_src_line "") 0) " ")
               (= (str.at (ite _t_ins_take _t_src_line "") 0) "\u{9}")))
      (a!2 (or (= (str.at (ite _t_ins_take _t_src_line "") (+ 0 1)) " ")
               (= (str.at (ite _t_ins_take _t_src_line "") (+ 0 1)) "\u{9}")))
      (a!3 (or (= (str.at (ite _t_ins_take _t_src_line "") (+ 0 2)) " ")
               (= (str.at (ite _t_ins_take _t_src_line "") (+ 0 2)) "\u{9}")))
      (a!4 (or (= (str.at (ite _t_ins_take _t_src_line "") (+ 0 3)) " ")
               (= (str.at (ite _t_ins_take _t_src_line "") (+ 0 3)) "\u{9}")))
      (a!5 (or (= (str.at (ite _t_ins_take _t_src_line "") (+ 0 4)) " ")
               (= (str.at (ite _t_ins_take _t_src_line "") (+ 0 4)) "\u{9}")))
      (a!6 (or (= (str.at (ite _t_ins_take _t_src_line "") (+ 0 5)) " ")
               (= (str.at (ite _t_ins_take _t_src_line "") (+ 0 5)) "\u{9}")))
      (a!7 (or (= (str.at (ite _t_ins_take _t_src_line "") (+ 0 6)) " ")
               (= (str.at (ite _t_ins_take _t_src_line "") (+ 0 6)) "\u{9}")))
      (a!8 (or (= (str.at (ite _t_ins_take _t_src_line "") (+ 0 7)) " ")
               (= (str.at (ite _t_ins_take _t_src_line "") (+ 0 7)) "\u{9}")))
      (a!9 (or (= (str.at (ite _t_ins_take _t_src_line "") (+ 0 8)) " ")
               (= (str.at (ite _t_ins_take _t_src_line "") (+ 0 8)) "\u{9}")))
      (a!10 (or (= (str.at (ite _t_ins_take _t_src_line "") (+ 0 9)) " ")
                (= (str.at (ite _t_ins_take _t_src_line "") (+ 0 9)) "\u{9}")))
      (a!11 (or (= (str.at (ite _t_ins_take _t_src_line "") (+ 0 10)) " ")
                (= (str.at (ite _t_ins_take _t_src_line "") (+ 0 10)) "\u{9}")))
      (a!12 (or (= (str.at (ite _t_ins_take _t_src_line "") (+ 0 11)) " ")
                (= (str.at (ite _t_ins_take _t_src_line "") (+ 0 11)) "\u{9}")))
      (a!13 (or (= (str.at (ite _t_ins_take _t_src_line "") (+ 0 12)) " ")
                (= (str.at (ite _t_ins_take _t_src_line "") (+ 0 12)) "\u{9}")))
      (a!14 (or (= (str.at (ite _t_ins_take _t_src_line "") (+ 0 13)) " ")
                (= (str.at (ite _t_ins_take _t_src_line "") (+ 0 13)) "\u{9}")))
      (a!15 (or (= (str.at (ite _t_ins_take _t_src_line "") (+ 0 14)) " ")
                (= (str.at (ite _t_ins_take _t_src_line "") (+ 0 14)) "\u{9}")))
      (a!16 (or (= (str.at (ite _t_ins_take _t_src_line "") (+ 0 15)) " ")
                (= (str.at (ite _t_ins_take _t_src_line "") (+ 0 15)) "\u{9}")))
      (a!17 (or (= (str.at (ite _t_ins_take _t_src_line "") (+ 0 16)) " ")
                (= (str.at (ite _t_ins_take _t_src_line "") (+ 0 16)) "\u{9}")))
      (a!18 (or (= (str.at (ite _t_ins_take _t_src_line "") (+ 0 17)) " ")
                (= (str.at (ite _t_ins_take _t_src_line "") (+ 0 17)) "\u{9}")))
      (a!19 (or (= (str.at (ite _t_ins_take _t_src_line "") (+ 0 18)) " ")
                (= (str.at (ite _t_ins_take _t_src_line "") (+ 0 18)) "\u{9}")))
      (a!20 (or (= (str.at (ite _t_ins_take _t_src_line "") (+ 0 19)) " ")
                (= (str.at (ite _t_ins_take _t_src_line "") (+ 0 19)) "\u{9}")))
      (a!21 (or (= (str.at (ite _t_ins_take _t_src_line "") (+ 0 20)) " ")
                (= (str.at (ite _t_ins_take _t_src_line "") (+ 0 20)) "\u{9}")))
      (a!22 (or (= (str.at (ite _t_ins_take _t_src_line "") (+ 0 21)) " ")
                (= (str.at (ite _t_ins_take _t_src_line "") (+ 0 21)) "\u{9}")))
      (a!23 (or (= (str.at (ite _t_ins_take _t_src_line "") (+ 0 22)) " ")
                (= (str.at (ite _t_ins_take _t_src_line "") (+ 0 22)) "\u{9}")))
      (a!24 (or (= (str.at (ite _t_ins_take _t_src_line "") (+ 0 23)) " ")
                (= (str.at (ite _t_ins_take _t_src_line "") (+ 0 23)) "\u{9}")))
      (a!25 (or (= (str.at (ite _t_ins_take _t_src_line "") (+ 0 24)) " ")
                (= (str.at (ite _t_ins_take _t_src_line "") (+ 0 24)) "\u{9}")))
      (a!26 (or (= (str.at (ite _t_ins_take _t_src_line "") (+ 0 25)) " ")
                (= (str.at (ite _t_ins_take _t_src_line "") (+ 0 25)) "\u{9}")))
      (a!27 (or (= (str.at (ite _t_ins_take _t_src_line "") (+ 0 26)) " ")
                (= (str.at (ite _t_ins_take _t_src_line "") (+ 0 26)) "\u{9}")))
      (a!28 (or (= (str.at (ite _t_ins_take _t_src_line "") (+ 0 27)) " ")
                (= (str.at (ite _t_ins_take _t_src_line "") (+ 0 27)) "\u{9}")))
      (a!29 (or (= (str.at (ite _t_ins_take _t_src_line "") (+ 0 28)) " ")
                (= (str.at (ite _t_ins_take _t_src_line "") (+ 0 28)) "\u{9}")))
      (a!30 (or (= (str.at (ite _t_ins_take _t_src_line "") (+ 0 29)) " ")
                (= (str.at (ite _t_ins_take _t_src_line "") (+ 0 29)) "\u{9}")))
      (a!31 (or (= (str.at (ite _t_ins_take _t_src_line "") (+ 0 30)) " ")
                (= (str.at (ite _t_ins_take _t_src_line "") (+ 0 30)) "\u{9}")))
      (a!32 (or (= (str.at (ite _t_ins_take _t_src_line "") (+ 0 31)) " ")
                (= (str.at (ite _t_ins_take _t_src_line "") (+ 0 31)) "\u{9}")))
      (a!33 (or (= (str.at (ite _t_ins_take _t_src_line "") (+ 0 32)) " ")
                (= (str.at (ite _t_ins_take _t_src_line "") (+ 0 32)) "\u{9}")))
      (a!34 (or (= (str.at (ite _t_ins_take _t_src_line "") (+ 0 33)) " ")
                (= (str.at (ite _t_ins_take _t_src_line "") (+ 0 33)) "\u{9}")))
      (a!35 (or (= (str.at (ite _t_ins_take _t_src_line "") (+ 0 34)) " ")
                (= (str.at (ite _t_ins_take _t_src_line "") (+ 0 34)) "\u{9}")))
      (a!36 (or (= (str.at (ite _t_ins_take _t_src_line "") (+ 0 35)) " ")
                (= (str.at (ite _t_ins_take _t_src_line "") (+ 0 35)) "\u{9}")))
      (a!37 (or (= (str.at (ite _t_ins_take _t_src_line "") (+ 0 36)) " ")
                (= (str.at (ite _t_ins_take _t_src_line "") (+ 0 36)) "\u{9}")))
      (a!38 (or (= (str.at (ite _t_ins_take _t_src_line "") (+ 0 37)) " ")
                (= (str.at (ite _t_ins_take _t_src_line "") (+ 0 37)) "\u{9}")))
      (a!39 (or (= (str.at (ite _t_ins_take _t_src_line "") (+ 0 38)) " ")
                (= (str.at (ite _t_ins_take _t_src_line "") (+ 0 38)) "\u{9}")))
      (a!40 (or (= (str.at (ite _t_ins_take _t_src_line "") (+ 0 39)) " ")
                (= (str.at (ite _t_ins_take _t_src_line "") (+ 0 39)) "\u{9}")))
      (a!41 (or (= (str.at (ite _t_ins_take _t_src_line "") (+ 0 40)) " ")
                (= (str.at (ite _t_ins_take _t_src_line "") (+ 0 40)) "\u{9}")))
      (a!42 (or (= (str.at (ite _t_ins_take _t_src_line "") (+ 0 41)) " ")
                (= (str.at (ite _t_ins_take _t_src_line "") (+ 0 41)) "\u{9}")))
      (a!43 (or (= (str.at (ite _t_ins_take _t_src_line "") (+ 0 42)) " ")
                (= (str.at (ite _t_ins_take _t_src_line "") (+ 0 42)) "\u{9}")))
      (a!44 (or (= (str.at (ite _t_ins_take _t_src_line "") (+ 0 43)) " ")
                (= (str.at (ite _t_ins_take _t_src_line "") (+ 0 43)) "\u{9}")))
      (a!45 (or (= (str.at (ite _t_ins_take _t_src_line "") (+ 0 44)) " ")
                (= (str.at (ite _t_ins_take _t_src_line "") (+ 0 44)) "\u{9}")))
      (a!46 (or (= (str.at (ite _t_ins_take _t_src_line "") (+ 0 45)) " ")
                (= (str.at (ite _t_ins_take _t_src_line "") (+ 0 45)) "\u{9}")))
      (a!47 (or (= (str.at (ite _t_ins_take _t_src_line "") (+ 0 46)) " ")
                (= (str.at (ite _t_ins_take _t_src_line "") (+ 0 46)) "\u{9}")))
      (a!48 (or (= (str.at (ite _t_ins_take _t_src_line "") (+ 0 47)) " ")
                (= (str.at (ite _t_ins_take _t_src_line "") (+ 0 47)) "\u{9}")))
      (a!49 (or (= (str.at (ite _t_ins_take _t_src_line "") (+ 0 48)) " ")
                (= (str.at (ite _t_ins_take _t_src_line "") (+ 0 48)) "\u{9}")))
      (a!50 (or (= (str.at (ite _t_ins_take _t_src_line "") (+ 0 49)) " ")
                (= (str.at (ite _t_ins_take _t_src_line "") (+ 0 49)) "\u{9}")))
      (a!51 (or (= (str.at (ite _t_ins_take _t_src_line "") (+ 0 50)) " ")
                (= (str.at (ite _t_ins_take _t_src_line "") (+ 0 50)) "\u{9}")))
      (a!52 (or (= (str.at (ite _t_ins_take _t_src_line "") (+ 0 51)) " ")
                (= (str.at (ite _t_ins_take _t_src_line "") (+ 0 51)) "\u{9}")))
      (a!53 (or (= (str.at (ite _t_ins_take _t_src_line "") (+ 0 52)) " ")
                (= (str.at (ite _t_ins_take _t_src_line "") (+ 0 52)) "\u{9}")))
      (a!54 (or (= (str.at (ite _t_ins_take _t_src_line "") (+ 0 53)) " ")
                (= (str.at (ite _t_ins_take _t_src_line "") (+ 0 53)) "\u{9}")))
      (a!55 (or (= (str.at (ite _t_ins_take _t_src_line "") (+ 0 54)) " ")
                (= (str.at (ite _t_ins_take _t_src_line "") (+ 0 54)) "\u{9}")))
      (a!56 (or (= (str.at (ite _t_ins_take _t_src_line "") (+ 0 55)) " ")
                (= (str.at (ite _t_ins_take _t_src_line "") (+ 0 55)) "\u{9}")))
      (a!57 (or (= (str.at (ite _t_ins_take _t_src_line "") (+ 0 56)) " ")
                (= (str.at (ite _t_ins_take _t_src_line "") (+ 0 56)) "\u{9}")))
      (a!58 (or (= (str.at (ite _t_ins_take _t_src_line "") (+ 0 57)) " ")
                (= (str.at (ite _t_ins_take _t_src_line "") (+ 0 57)) "\u{9}")))
      (a!59 (or (= (str.at (ite _t_ins_take _t_src_line "") (+ 0 58)) " ")
                (= (str.at (ite _t_ins_take _t_src_line "") (+ 0 58)) "\u{9}")))
      (a!60 (or (= (str.at (ite _t_ins_take _t_src_line "") (+ 0 59)) " ")
                (= (str.at (ite _t_ins_take _t_src_line "") (+ 0 59)) "\u{9}")))
      (a!61 (or (= (str.at (ite _t_ins_take _t_src_line "") (+ 0 60)) " ")
                (= (str.at (ite _t_ins_take _t_src_line "") (+ 0 60)) "\u{9}")))
      (a!62 (or (= (str.at (ite _t_ins_take _t_src_line "") (+ 0 61)) " ")
                (= (str.at (ite _t_ins_take _t_src_line "") (+ 0 61)) "\u{9}")))
      (a!63 (or (= (str.at (ite _t_ins_take _t_src_line "") (+ 0 62)) " ")
                (= (str.at (ite _t_ins_take _t_src_line "") (+ 0 62)) "\u{9}")))
      (a!64 (or (= (str.at (ite _t_ins_take _t_src_line "") (+ 0 63)) " ")
                (= (str.at (ite _t_ins_take _t_src_line "") (+ 0 63)) "\u{9}"))))
(let ((a!65 (ite (not a!62)
                 (+ 0 61)
                 (ite (not a!63) (+ 0 62) (ite (not a!64) (+ 0 63) (+ 0 64))))))
(let ((a!66 (ite (not a!59)
                 (+ 0 58)
                 (ite (not a!60) (+ 0 59) (ite (not a!61) (+ 0 60) a!65)))))
(let ((a!67 (ite (not a!56)
                 (+ 0 55)
                 (ite (not a!57) (+ 0 56) (ite (not a!58) (+ 0 57) a!66)))))
(let ((a!68 (ite (not a!53)
                 (+ 0 52)
                 (ite (not a!54) (+ 0 53) (ite (not a!55) (+ 0 54) a!67)))))
(let ((a!69 (ite (not a!50)
                 (+ 0 49)
                 (ite (not a!51) (+ 0 50) (ite (not a!52) (+ 0 51) a!68)))))
(let ((a!70 (ite (not a!47)
                 (+ 0 46)
                 (ite (not a!48) (+ 0 47) (ite (not a!49) (+ 0 48) a!69)))))
(let ((a!71 (ite (not a!44)
                 (+ 0 43)
                 (ite (not a!45) (+ 0 44) (ite (not a!46) (+ 0 45) a!70)))))
(let ((a!72 (ite (not a!41)
                 (+ 0 40)
                 (ite (not a!42) (+ 0 41) (ite (not a!43) (+ 0 42) a!71)))))
(let ((a!73 (ite (not a!38)
                 (+ 0 37)
                 (ite (not a!39) (+ 0 38) (ite (not a!40) (+ 0 39) a!72)))))
(let ((a!74 (ite (not a!35)
                 (+ 0 34)
                 (ite (not a!36) (+ 0 35) (ite (not a!37) (+ 0 36) a!73)))))
(let ((a!75 (ite (not a!32)
                 (+ 0 31)
                 (ite (not a!33) (+ 0 32) (ite (not a!34) (+ 0 33) a!74)))))
(let ((a!76 (ite (not a!29)
                 (+ 0 28)
                 (ite (not a!30) (+ 0 29) (ite (not a!31) (+ 0 30) a!75)))))
(let ((a!77 (ite (not a!26)
                 (+ 0 25)
                 (ite (not a!27) (+ 0 26) (ite (not a!28) (+ 0 27) a!76)))))
(let ((a!78 (ite (not a!23)
                 (+ 0 22)
                 (ite (not a!24) (+ 0 23) (ite (not a!25) (+ 0 24) a!77)))))
(let ((a!79 (ite (not a!20)
                 (+ 0 19)
                 (ite (not a!21) (+ 0 20) (ite (not a!22) (+ 0 21) a!78)))))
(let ((a!80 (ite (not a!17)
                 (+ 0 16)
                 (ite (not a!18) (+ 0 17) (ite (not a!19) (+ 0 18) a!79)))))
(let ((a!81 (ite (not a!14)
                 (+ 0 13)
                 (ite (not a!15) (+ 0 14) (ite (not a!16) (+ 0 15) a!80)))))
(let ((a!82 (ite (not a!11)
                 (+ 0 10)
                 (ite (not a!12) (+ 0 11) (ite (not a!13) (+ 0 12) a!81)))))
(let ((a!83 (ite (not a!8)
                 (+ 0 7)
                 (ite (not a!9) (+ 0 8) (ite (not a!10) (+ 0 9) a!82)))))
(let ((a!84 (ite (not a!5)
                 (+ 0 4)
                 (ite (not a!6) (+ 0 5) (ite (not a!7) (+ 0 6) a!83)))))
(let ((a!85 (ite (not a!2)
                 (+ 0 1)
                 (ite (not a!3) (+ 0 2) (ite (not a!4) (+ 0 3) a!84)))))
  (= _t_ind_end (ite (not a!1) 0 a!85)))))))))))))))))))))))))
(assert (let ((a!1 (str.++ "claim" (str.substr _t_rline 3 (- (str.len _t_rline) 3))))
      (a!2 (str.++ (str.substr _cur_line 0 _t_s1f)
                   _splice_add
                   (str.substr _cur_line _t_s1f (- (str.len _cur_line) _t_s1f)))))
(let ((a!3 (ite _t_plain_emit
                (ite (or (str.prefixof "fsm " _t_rline)
                         (str.prefixof "fsm\u{9}" _t_rline))
                     a!1
                     _t_rline)
                (ite (and _t_scan_done (>= _t_s1f 0)) a!2 _cur_line))))
(let ((a!4 (str.++ a!3
                   (ite _t_ins_take
                        (str.++ "\u{a}"
                                (str.substr _t_src_line 0 _t_ind_end)
                                _ins_txt)
                        ""))))
  (= _t_out_full a!4)))))
(assert (= eff_out
   (LibCall "libc" "puts" (__Cell_LibArg (ArgStr _t_out_full) __Empty_LibArg))))
(assert (= eff_nop (LibCall "libc" "getpid" __Empty_LibArg)))
(assert (= _t_exit_now (and _t_reof (or (= _t_ph 1) (= _t_ph 2) (= _t_ph 3)))))
(assert (= _t_reg_read (or (= _t_ph 1) (= _t_ph 2))))
(assert (let ((a!1 (ite (= _t_ph 2)
                3
                (ite (= _t_ph 3)
                     (ite _t_has_inj 4 3)
                     (ite (= _t_ph 4) (ite _t_scan_done 3 4) _t_ph)))))
  (= phase (ite is_first_tick 1 (ite (= _t_ph 1) 2 a!1)))))
(assert (= line_no (ite is_first_tick 0 _t_nn)))
(assert (= ins_reg (ite is_first_tick "" (ite (= _t_ph 1) _t_rline _ins_reg))))
(assert (= inj_reg (ite is_first_tick "" (ite (= _t_ph 2) _t_rline _inj_reg))))
(assert (let ((a!1 (ite (and _t_ins_step (< _t_ins_c (str.len _t_ins_src)))
                (- (- (str.indexof _t_ins_src "\u{27e7}" _t_ins_c) _t_ins_c) 1)
                0))
      (a!2 (str.indexof "0123456789" (str.at _t_ins_src (+ (+ _t_ins_c 1) 0)) 0))
      (a!3 (str.indexof "0123456789" (str.at _t_ins_src (+ (+ _t_ins_c 1) 1)) 0))
      (a!4 (str.indexof "0123456789" (str.at _t_ins_src (+ (+ _t_ins_c 1) 2)) 0))
      (a!5 (str.indexof "0123456789" (str.at _t_ins_src (+ (+ _t_ins_c 1) 3)) 0))
      (a!6 (str.indexof "0123456789" (str.at _t_ins_src (+ (+ _t_ins_c 1) 4)) 0))
      (a!7 (str.indexof "0123456789" (str.at _t_ins_src (+ (+ _t_ins_c 1) 5)) 0))
      (a!8 (str.indexof "0123456789" (str.at _t_ins_src (+ (+ _t_ins_c 1) 6)) 0)))
(let ((a!9 (ite (= a!1 6)
                (+ (* a!2 100000)
                   (* a!3 10000)
                   (* a!4 1000)
                   (* a!5 100)
                   (* a!6 10)
                   a!7)
                (ite (= a!1 7)
                     (+ (* a!2 1000000)
                        (* a!3 100000)
                        (* a!4 10000)
                        (* a!5 1000)
                        (* a!6 100)
                        (* a!7 10)
                        a!8)
                     (- 0 1)))))
(let ((a!10 (ite (= a!1 4)
                 (+ (* a!2 1000) (* a!3 100) (* a!4 10) a!5)
                 (ite (= a!1 5)
                      (+ (* a!2 10000) (* a!3 1000) (* a!4 100) (* a!5 10) a!6)
                      a!9))))
(let ((a!11 (ite (= a!1 2)
                 (+ (* a!2 10) a!3)
                 (ite (= a!1 3) (+ (* a!2 100) (* a!3 10) a!4) a!10))))
  (= _t_ins_no_parsed (ite (= a!1 1) a!2 a!11)))))))
(assert (let ((a!1 (ite _t_ins_step
                (ite (>= _t_ins_c (str.len _t_ins_src))
                     (- 0 1)
                     _t_ins_no_parsed)
                _ins_no)))
  (= ins_no (ite is_first_tick (- 0 1) a!1))))
(assert (let ((a!1 (ite (< (str.indexof _t_ins_src "\u{27e6}" (+ _t_ins_c 1)) 0)
                (str.len _t_ins_src)
                (str.indexof _t_ins_src "\u{27e6}" (+ _t_ins_c 1)))))
(let ((a!2 (str.substr _t_ins_src
                       (+ (str.indexof _t_ins_src "\u{27e7}" _t_ins_c) 1)
                       (- (- a!1 (str.indexof _t_ins_src "\u{27e7}" _t_ins_c))
                          1))))
(let ((a!3 (ite _t_ins_step
                (ite (>= _t_ins_c (str.len _t_ins_src)) "" a!2)
                _ins_txt)))
  (= ins_txt (ite is_first_tick "" a!3))))))
(assert (let ((a!1 (ite (< (str.indexof _t_ins_src "\u{27e6}" (+ _t_ins_c 1)) 0)
                (str.len _t_ins_src)
                (str.indexof _t_ins_src "\u{27e6}" (+ _t_ins_c 1)))))
  (= ins_cur (ite is_first_tick 0 (ite _t_ins_step a!1 _ins_cur)))))
(assert (let ((a!1 (ite (and _t_inj_step (< _t_inj_c (str.len _t_inj_src)))
                (- (- (str.indexof _t_inj_src "\u{27e7}" _t_inj_c) _t_inj_c) 1)
                0))
      (a!2 (str.indexof "0123456789" (str.at _t_inj_src (+ (+ _t_inj_c 1) 0)) 0))
      (a!3 (str.indexof "0123456789" (str.at _t_inj_src (+ (+ _t_inj_c 1) 1)) 0))
      (a!4 (str.indexof "0123456789" (str.at _t_inj_src (+ (+ _t_inj_c 1) 2)) 0))
      (a!5 (str.indexof "0123456789" (str.at _t_inj_src (+ (+ _t_inj_c 1) 3)) 0))
      (a!6 (str.indexof "0123456789" (str.at _t_inj_src (+ (+ _t_inj_c 1) 4)) 0))
      (a!7 (str.indexof "0123456789" (str.at _t_inj_src (+ (+ _t_inj_c 1) 5)) 0))
      (a!8 (str.indexof "0123456789" (str.at _t_inj_src (+ (+ _t_inj_c 1) 6)) 0)))
(let ((a!9 (ite (= a!1 6)
                (+ (* a!2 100000)
                   (* a!3 10000)
                   (* a!4 1000)
                   (* a!5 100)
                   (* a!6 10)
                   a!7)
                (ite (= a!1 7)
                     (+ (* a!2 1000000)
                        (* a!3 100000)
                        (* a!4 10000)
                        (* a!5 1000)
                        (* a!6 100)
                        (* a!7 10)
                        a!8)
                     (- 0 1)))))
(let ((a!10 (ite (= a!1 4)
                 (+ (* a!2 1000) (* a!3 100) (* a!4 10) a!5)
                 (ite (= a!1 5)
                      (+ (* a!2 10000) (* a!3 1000) (* a!4 100) (* a!5 10) a!6)
                      a!9))))
(let ((a!11 (ite (= a!1 2)
                 (+ (* a!2 10) a!3)
                 (ite (= a!1 3) (+ (* a!2 100) (* a!3 10) a!4) a!10))))
  (= _t_inj_no_parsed (ite (= a!1 1) a!2 a!11)))))))
(assert (let ((a!1 (ite _t_inj_step
                (ite (>= _t_inj_c (str.len _t_inj_src))
                     (- 0 1)
                     _t_inj_no_parsed)
                _inj_no)))
  (= inj_no (ite is_first_tick (- 0 1) a!1))))
(assert (let ((a!1 (ite (< (str.indexof _t_inj_src "\u{27e6}" (+ _t_inj_c 1)) 0)
                (str.len _t_inj_src)
                (str.indexof _t_inj_src "\u{27e6}" (+ _t_inj_c 1)))))
  (= inj_cur (ite is_first_tick 0 (ite _t_inj_step a!1 _inj_cur)))))
(assert (let ((a!1 (ite (< (str.indexof _t_inj_src "\u{27e6}" (+ _t_inj_c 1)) 0)
                (str.len _t_inj_src)
                (str.indexof _t_inj_src "\u{27e6}" (+ _t_inj_c 1)))))
(let ((a!2 (str.substr _t_inj_src
                       (+ (str.indexof _t_inj_src "\u{27e7}" _t_inj_c) 1)
                       (- (- a!1 (str.indexof _t_inj_src "\u{27e7}" _t_inj_c))
                          1))))
(let ((a!3 (ite _t_inj_step
                (ite (>= _t_inj_c (str.len _t_inj_src)) "" a!2)
                _inj_txt)))
  (= inj_txt (ite is_first_tick "" a!3))))))
(assert (= cur_line (ite is_first_tick "" (ite _t_has_inj _t_rline _cur_line))))
(assert (let ((a!1 (ite is_first_tick
                0
                (ite _t_has_inj
                     (+ (str.indexof _t_rline "(" 0) 1)
                     (ite (= _t_ph 4) _t_s1p _scan_pos)))))
  (= scan_pos a!1)))
(assert (let ((a!1 (ite is_first_tick
                0
                (ite _t_has_inj 1 (ite (= _t_ph 4) _t_s1d _scan_depth)))))
  (= scan_depth a!1)))
(assert (let ((a!1 (ite is_first_tick
                (- 0 1)
                (ite _t_has_inj (- 0 2) (ite (= _t_ph 4) _t_s1f _scan_found)))))
  (= scan_found a!1)))
(assert (= splice_add (ite is_first_tick "" (ite _t_inj_take _inj_txt _splice_add))))
(assert (let ((a!1 (and (= effects__len 2)
                (= (select effects 0) eff_nop)
                (= (select effects 1) ReadLine)))
      (a!2 (=> _t_exit_now
               (and (= effects__len 2)
                    (= (select effects 0) (Exit 0))
                    (= (select effects 1) eff_nop))))
      (a!3 (=> _t_emit_now
               (and (= effects__len 2)
                    (= (select effects 0) eff_out)
                    (= (select effects 1) ReadLine))))
      (a!4 (=> (not _t_emit_now)
               (and (= effects__len 2)
                    (= (select effects 0) eff_nop)
                    (= (select effects 1) eff_nop)))))
(let ((a!5 (=> (not _t_exit_now)
               (and (=> _t_reg_read a!1) (=> (not _t_reg_read) (and a!3 a!4))))))
  (and (=> is_first_tick a!1) (=> (not is_first_tick) (and a!2 a!5))))))
(declare-fun _eff_nop () Effect)
(declare-fun _eff_out () Effect)
